20191108 64100.00 40700.00
20180309 51800.00 39000.00
20170630 51800.61 37133.20
20170609 51800.61 37184.44
20170308 25900.30 18592.22
20160630 23385.38 18592.22
20151231 23385.38 18398.69
20150630 23385.38 18398.69
